unsat
(:elim-unconstrained  4
 :max-memory          18.42
 :memory              18.33
 :nlsat-arith-var     1
 :nlsat-atoms         4
 :nlsat-bool-var      1
 :nlsat-clauses       4
 :nlsat-conflicts     1
 :nlsat-propagations  4
 :nlsat-stages        1
 :num-allocs          52281
 :rlimit-count        2267
 :solve-eqs-elim-vars 2
 :solve-eqs-steps     2
 :time                0.00
 :total-time          0.01)
